GLPSOL--GLPK LP/MIP Solver 5.0
Parameter(s) specified in the command line:
 --lp ../modeles/2_349.lp --log 2_349.log
Reading problem data from '../modeles/2_349.lp'...
707 rows, 1400 columns, 4896 non-zeros
698 integer variables, all of which are binary
2115 lines were read
GLPK Integer Optimizer 5.0
707 rows, 1400 columns, 4896 non-zeros
698 integer variables, all of which are binary
Preprocessing...
692 constraint coefficient(s) were reduced
707 rows, 1398 columns, 4894 non-zeros
698 integer variables, all of which are binary
Scaling...
 A: min|aij| =  3.284e-05  max|aij| =  4.000e+00  ratio =  1.218e+05
GM: min|aij| =  5.353e-02  max|aij| =  1.868e+01  ratio =  3.490e+02
EQ: min|aij| =  2.865e-03  max|aij| =  1.000e+00  ratio =  3.490e+02
2N: min|aij| =  2.102e-03  max|aij| =  1.709e+00  ratio =  8.129e+02
Constructing initial basis...
Size of triangular part is 707
Solving LP relaxation...
GLPK Simplex Optimizer 5.0
707 rows, 1398 columns, 4894 non-zeros
      0: obj =   4.000000000e+00 inf =   1.070e+02 (5)
     61: obj =   4.999712644e-01 inf =   0.000e+00 (0)
*   244: obj =  -1.414184536e+00 inf =   3.581e-13 (0)
OPTIMAL LP SOLUTION FOUND
Integer optimization begins...
Long-step dual simplex will be used
+   244: mip =     not found yet >=              -inf        (1; 0)
+   246: >>>>>  -1.414184536e+00 >=  -1.414184536e+00 < 0.1% (3; 0)
+   246: mip =  -1.414184536e+00 >=     tree is empty   0.0% (0; 5)
INTEGER OPTIMAL SOLUTION FOUND
Time used:   0.0 secs
Memory used: 2.0 Mb (2079120 bytes)
